%%% static parameters %%%
timespan = 1;
Clients_N = [500];
Demand_W = [15];
Lt0 = [4];
Lt1 = [4];
SS_ = [0.85];
DS_D = [20];
K = [200];
MA = [500];
HC = [0.05];
%%% dynamic parameters %%%
lost_ratio_sales_ret_th = 0.00025790088226781906;
lost_ratio_sales_ret_w = 43;
lost_ratio_sales_dis_th = 0.0008021031577732879;
lost_ratio_sales_dis_w = 87;
lost_ratio_sales_fac_th = 0.0003463585945930815;
lost_ratio_sales_fac_w = 69;
stock_customer_MA_mean_relative_th = 0.947224177815465;
stock_customer_MA_mean_relative_w = 36;
stock_distributor_MA_mean_relative_th = 0.6626727673823778;
stock_distributor_MA_mean_relative_w = 39;
stock_retailer_MA_mean_relative_th = 0.4610312371389115;
stock_retailer_MA_mean_relative_w = 65;
stock_factory_MA_mean_relative_th = 0.9320740660702518;
stock_factory_MA_mean_relative_w = 44;
